%mem=1GB
%nprocshared=4
%chk=molecule_0
#AM1 FChk NoSymmetry

single point energy 

0 1
     C      6.003993     -0.334852      0.133691
     N      5.973341      0.802623     -0.666224
     C      4.805694      1.277624     -1.009006
     C      3.528690      0.695317     -0.609295
     C      2.327427      1.234217     -0.997255
     C      1.091365      0.632343     -0.583478
     N     -0.082722      1.181040     -0.978119
     C     -1.232503      0.574926     -0.560707
     N     -2.447978      1.123977     -0.955911
     C     -3.566482      0.538633     -0.552865
     C     -4.857485      1.099658     -0.957062
     C     -6.003038      0.506946     -0.549042
     C     -5.934397     -0.679492      0.285582
     N     -4.827869     -1.239240      0.687481
     C     -3.611427     -0.663835      0.292166
     C     -2.413084     -1.224343      0.695296
     C     -1.174389     -0.626761      0.284557
     N      0.002295     -1.166765      0.673107
     C      1.142086     -0.560590      0.255577
     C      2.417471     -1.089222      0.636880
     C      3.581105     -0.483754      0.220027
     C      4.886253     -0.982181      0.580320
     H      7.023836     -0.677877      0.382571
     H      4.789608      2.182854     -1.645535
     H      2.292350      2.136235     -1.631669
     H     -4.855660      2.001311     -1.590937
     H     -6.993697      0.892703     -0.827743
     H     -6.879761     -1.154073      0.612067
     H     -2.387951     -2.127526      1.330451
     H      2.451923     -1.990612      1.270847
     H      4.950703     -1.879182      1.211429



